all_keccak_equations/0xD5A582729DB47AD0_0x0AF7581964F6A7C6_0x314E2A0029F2CEF2_0x568743675DC773FA_40/maximal_linearize.log

# variables: 2240
# non-linear: 256

        0.00 - Start computation

        0.00 - target guess 160
Set parameter Username
Academic license - for non-commercial use only - expires 2022-06-20
Set parameter Threads to value 64
Set parameter MIPFocus to value 3
        0.06 - there are 135 short nonlinear (11) polynomial
Set parameter TimeLimit to value 1800
Gurobi Optimizer version 9.5.0 build v9.5.0rc5 (linux64)
Thread count: 32 physical cores, 64 logical processors, using up to 64 threads
Optimize a model with 5124 rows, 2496 columns and 16032 nonzeros
Model fingerprint: 0xf171ea32
Variable types: 0 continuous, 2496 integer (2496 binary)
Coefficient statistics:
  Matrix range     [1e+00, 1e+00]
  Objective range  [1e+00, 1e+00]
  Bounds range     [1e+00, 1e+00]
  RHS range        [3e+01, 2e+02]
Presolve removed 3637 rows and 1241 columns
Presolve time: 0.01s
Presolved: 1487 rows, 1255 columns, 5668 nonzeros
Variable types: 0 continuous, 1255 integer (1222 binary)
Root relaxation presolved: 1487 rows, 1255 columns, 5668 nonzeros


Root relaxation: objective 3.400000e+01, 1508 iterations, 0.04 seconds (0.05 work units)

    Nodes    |    Current Node    |     Objective Bounds      |     Work
 Expl Unexpl |  Obj  Depth IntInf | Incumbent    BestBd   Gap | It/Node Time

     0     0   34.00000    0   32          -   34.00000      -     -    0s
H    0     0                      34.0000000   34.00000  0.00%     -    0s

Cutting planes:
  Gomory: 3
  Cover: 1
  Zero half: 25

Explored 1 nodes (4561 simplex iterations) in 0.29 seconds (0.27 work units)
Thread count was 64 (of 64 available processors)

Solution count 1: 34 

Optimal solution found (tolerance 1.00e-04)
Best objective 3.400000000000e+01, best bound 3.400000000000e+01, gap 0.0000%
        0.36 - 	Solution num 1:
guessed:  x647 x650 x657 x660 x661 x689 x709 x716 x723 x724 x777 x778 x780 x786 x790 x791 x792 x853 x874 x875 x876 x878 x889 x890 x941 x943 x946 x955 x995 x1008 x1052 x1087 x1089 x1090 x1094 x1100 x1131 x1174 x1179 x1207 x1239 x1266 x1273 x1277 x1278 x1289 x1298 x1301 x1326 x1346 x1350 x1354 x1358 x1404 x1405 x1407 x1436 x1439 x1445 x1446 x1449 x1451 x1484 x1498 x1517 x1524 x1528 x1530 x1531 x1533 x1535 x1567 x1568 x1573 x1581 x1585 x1601 x1604 x1607 x1613 x1632 x1639 x1640 x1642 x1644 x1645 x1689 x1691 x1692 x1700 x1702 x1703 x1705 x1731 x1732 x1734 x1735 x1792 x1804 x1819 x1844 x1854 x1857 x1872 x1893 x1918 x1919 x1920 x1921 x1924 x1925 x1946 x1971 x1974 x1977 x1982 x1987 x1988 x1990 x1993 x2000 x2005 x2017 x2022 x2026 x2050 x2056 x2062 x2067 x2069 x2072 x2074 x2075 x2078 x2081 x2090 x2093 x2095 x2099 x2111 x2125 x2126 x2128 x2129 x2131 x2136 x2143 x2164 x2178 x2180 x2184 x2185 x2189 x2206 x2210 x2216 x2231 x2232 x2234 x2237[160]
linearized equations:  7 8 10 13 17 18 20 21 22 43 49 68 93 114 115 120 125 129 131 152 177 178 183 188 190 193 221 222 224 231 232 234 235 236
        0.36 - target guess 159
Set parameter Username
Academic license - for non-commercial use only - expires 2022-06-20
Set parameter Threads to value 64
Set parameter MIPFocus to value 3
        0.40 - there are 135 short nonlinear (11) polynomial
Set parameter TimeLimit to value 1800
Gurobi Optimizer version 9.5.0 build v9.5.0rc5 (linux64)
Thread count: 32 physical cores, 64 logical processors, using up to 64 threads
Optimize a model with 5124 rows, 2496 columns and 16032 nonzeros
Model fingerprint: 0x5bb743aa
Variable types: 0 continuous, 2496 integer (2496 binary)
Coefficient statistics:
  Matrix range     [1e+00, 1e+00]
  Objective range  [1e+00, 1e+00]
  Bounds range     [1e+00, 1e+00]
  RHS range        [4e+01, 2e+02]
Presolve removed 3637 rows and 1241 columns
Presolve time: 0.01s
Presolved: 1487 rows, 1255 columns, 5668 nonzeros
Variable types: 0 continuous, 1255 integer (1222 binary)
Root relaxation presolved: 1487 rows, 1255 columns, 5668 nonzeros


Root relaxation: objective 3.500000e+01, 1464 iterations, 0.04 seconds (0.05 work units)

    Nodes    |    Current Node    |     Objective Bounds      |     Work
 Expl Unexpl |  Obj  Depth IntInf | Incumbent    BestBd   Gap | It/Node Time

     0     0   35.00000    0   48          -   35.00000      -     -    0s
H    0     0                      35.0000000   35.00000  0.00%     -    0s

Cutting planes:
  Gomory: 5
  Cover: 1
  Zero half: 2
  RLT: 1

Explored 1 nodes (4338 simplex iterations) in 0.30 seconds (0.30 work units)
Thread count was 64 (of 64 available processors)

Solution count 1: 35 

Optimal solution found (tolerance 1.00e-04)
Best objective 3.500000000000e+01, best bound 3.500000000000e+01, gap 0.0000%
        0.70 - 	Solution num 1:
guessed:  x647 x657 x660 x661 x662 x666 x709 x723 x724 x777 x778 x787 x790 x791 x792 x816 x875 x876 x878 x889 x890 x941 x946 x955 x995 x998 x1008 x1026 x1052 x1087 x1089 x1090 x1094 x1095 x1100 x1168 x1171 x1174 x1179 x1239 x1273 x1277 x1278 x1287 x1289 x1297 x1301 x1346 x1350 x1351 x1354 x1355 x1358 x1404 x1405 x1407 x1436 x1445 x1446 x1449 x1451 x1490 x1517 x1521 x1524 x1528 x1531 x1533 x1535 x1567 x1573 x1578 x1581 x1585 x1601 x1603 x1604 x1607 x1630 x1632 x1639 x1642 x1644 x1645 x1691 x1692 x1699 x1700 x1702 x1704 x1705 x1726 x1731 x1732 x1735 x1792 x1813 x1816 x1844 x1854 x1857 x1872 x1893 x1918 x1919 x1920 x1924 x1925 x1946 x1971 x1974 x1977 x1982 x1987 x1988 x1990 x1993 x1998 x2000 x2005 x2014 x2017 x2022 x2025 x2026 x2029 x2056 x2057 x2062 x2067 x2069 x2074 x2075 x2078 x2081 x2093 x2095 x2125 x2126 x2128 x2129 x2131 x2136 x2141 x2143 x2164 x2178 x2180 x2184 x2185 x2187 x2189 x2195 x2206 x2210 x2231 x2232 x2234 x2237[159]
linearized equations:  7 8 10 13 17 18 20 21 22 43 46 68 87 114 115 118 120 125 129 131 152 177 178 183 188 190 193 221 222 224 231 232 234 235 236
        0.70 - target guess 158
Set parameter Username
Academic license - for non-commercial use only - expires 2022-06-20
Set parameter Threads to value 64
Set parameter MIPFocus to value 3
        0.73 - there are 135 short nonlinear (11) polynomial
Set parameter TimeLimit to value 1800
Gurobi Optimizer version 9.5.0 build v9.5.0rc5 (linux64)
Thread count: 32 physical cores, 64 logical processors, using up to 64 threads
Optimize a model with 5124 rows, 2496 columns and 16032 nonzeros
Model fingerprint: 0x97426fa5
Variable types: 0 continuous, 2496 integer (2496 binary)
Coefficient statistics:
  Matrix range     [1e+00, 1e+00]
  Objective range  [1e+00, 1e+00]
  Bounds range     [1e+00, 1e+00]
  RHS range        [4e+01, 2e+02]
Presolve removed 3637 rows and 1241 columns
Presolve time: 0.01s
Presolved: 1487 rows, 1255 columns, 5668 nonzeros
Variable types: 0 continuous, 1255 integer (1222 binary)
Root relaxation presolved: 1487 rows, 1255 columns, 5668 nonzeros


Root relaxation: objective 3.600000e+01, 1584 iterations, 0.04 seconds (0.06 work units)

    Nodes    |    Current Node    |     Objective Bounds      |     Work
 Expl Unexpl |  Obj  Depth IntInf | Incumbent    BestBd   Gap | It/Node Time

H    0     0                      36.0000000  135.00000   275%     -    0s
     0     0          -    0        36.00000   36.00000  0.00%     -    0s

Explored 1 nodes (3957 simplex iterations) in 0.45 seconds (0.26 work units)
Thread count was 64 (of 64 available processors)

Solution count 1: 36 

Optimal solution found (tolerance 1.00e-04)
Best objective 3.600000000000e+01, best bound 3.600000000000e+01, gap 0.0000%
        1.19 - 	Solution num 1:
guessed:  x647 x650 x657 x661 x682 x683 x723 x724 x778 x780 x787 x790 x791 x792 x814 x874 x876 x878 x889 x890 x912 x941 x943 x946 x955 x995 x1008 x1009 x1052 x1089 x1090 x1094 x1095 x1100 x1125 x1168 x1174 x1179 x1237 x1267 x1273 x1277 x1278 x1289 x1297 x1301 x1320 x1346 x1351 x1354 x1355 x1358 x1377 x1379 x1404 x1405 x1407 x1436 x1439 x1446 x1449 x1451 x1487 x1517 x1518 x1522 x1524 x1528 x1530 x1535 x1567 x1573 x1578 x1581 x1585 x1601 x1602 x1603 x1604 x1630 x1632 x1639 x1642 x1644 x1645 x1689 x1692 x1699 x1700 x1702 x1704 x1705 x1727 x1729 x1731 x1732 x1735 x1792 x1813 x1816 x1844 x1851 x1854 x1857 x1870 x1872 x1892 x1893 x1920 x1921 x1925 x1971 x1972 x1973 x1977 x1984 x1987 x1988 x1993 x2000 x2005 x2017 x2022 x2024 x2025 x2026 x2027 x2045 x2048 x2056 x2062 x2069 x2074 x2075 x2077 x2081 x2093 x2096 x2125 x2126 x2129 x2131 x2141 x2143 x2162 x2165 x2180 x2184 x2185 x2188 x2189 x2193 x2206 x2210 x2211 x2231 x2232 x2237[158]
linearized equations:  7 8 10 13 17 18 20 21 22 43 44 68 87 114 115 120 125 129 131 150 151 152 177 178 183 190 193 194 222 224 231 232 234 235 236 255
        1.19 - target guess 157
Set parameter Username
Academic license - for non-commercial use only - expires 2022-06-20
Set parameter Threads to value 64
Set parameter MIPFocus to value 3
        1.23 - there are 135 short nonlinear (11) polynomial
Set parameter TimeLimit to value 1800
Gurobi Optimizer version 9.5.0 build v9.5.0rc5 (linux64)
Thread count: 32 physical cores, 64 logical processors, using up to 64 threads
Optimize a model with 5124 rows, 2496 columns and 16032 nonzeros
Model fingerprint: 0xd48871fd
Variable types: 0 continuous, 2496 integer (2496 binary)
Coefficient statistics:
  Matrix range     [1e+00, 1e+00]
  Objective range  [1e+00, 1e+00]
  Bounds range     [1e+00, 1e+00]
  RHS range        [4e+01, 2e+02]
Presolve removed 3637 rows and 1241 columns
Presolve time: 0.01s
Presolved: 1487 rows, 1255 columns, 5668 nonzeros
Variable types: 0 continuous, 1255 integer (1222 binary)
Root relaxation presolved: 1487 rows, 1255 columns, 5668 nonzeros


Root relaxation: objective 3.700000e+01, 1667 iterations, 0.07 seconds (0.06 work units)

    Nodes    |    Current Node    |     Objective Bounds      |     Work
 Expl Unexpl |  Obj  Depth IntInf | Incumbent    BestBd   Gap | It/Node Time

     0     0   37.00000    0   58          -   37.00000      -     -    0s
H    0     0                      37.0000000   37.00000  0.00%     -    0s

Cutting planes:
  Gomory: 6
  Flow cover: 3
  Zero half: 45
  RLT: 1

Explored 1 nodes (3850 simplex iterations) in 0.55 seconds (0.31 work units)
Thread count was 64 (of 64 available processors)

Solution count 1: 37 

Optimal solution found (tolerance 1.00e-04)
Best objective 3.700000000000e+01, best bound 3.700000000000e+01, gap 0.0000%
        1.79 - 	Solution num 1:
guessed:  x647 x657 x682 x684 x723 x724 x778 x790 x791 x792 x812 x813 x874 x876 x878 x889 x890 x912 x941 x955 x995 x998 x1008 x1030 x1052 x1087 x1090 x1092 x1094 x1095 x1100 x1126 x1168 x1171 x1174 x1179 x1237 x1239 x1266 x1267 x1273 x1278 x1287 x1289 x1294 x1301 x1346 x1358 x1377 x1404 x1407 x1436 x1446 x1451 x1486 x1490 x1498 x1517 x1518 x1522 x1525 x1528 x1535 x1540 x1567 x1573 x1585 x1601 x1608 x1630 x1632 x1637 x1639 x1640 x1641 x1642 x1644 x1645 x1689 x1690 x1692 x1697 x1699 x1702 x1704 x1705 x1726 x1727 x1729 x1731 x1732 x1734 x1735 x1784 x1813 x1814 x1844 x1851 x1854 x1857 x1862 x1870 x1872 x1919 x1920 x1925 x1946 x1971 x1972 x1977 x1987 x1988 x1990 x1993 x2000 x2005 x2014 x2017 x2022 x2024 x2025 x2026 x2045 x2050 x2056 x2059 x2062 x2069 x2074 x2075 x2076 x2081 x2090 x2093 x2105 x2125 x2126 x2129 x2131 x2134 x2143 x2164 x2176 x2180 x2183 x2184 x2185 x2187 x2189 x2191 x2206 x2210 x2211 x2231 x2232 x2234 x2237[157]
linearized equations:  7 8 10 13 17 18 20 22 43 44 68 87 88 114 115 118 120 125 129 131 150 177 178 183 190 192 193 221 222 224 227 231 232 234 235 236 255
        1.79 - target guess 156
Set parameter Username
Academic license - for non-commercial use only - expires 2022-06-20
Set parameter Threads to value 64
Set parameter MIPFocus to value 3
        1.81 - there are 135 short nonlinear (11) polynomial
Set parameter TimeLimit to value 1800
Gurobi Optimizer version 9.5.0 build v9.5.0rc5 (linux64)
Thread count: 32 physical cores, 64 logical processors, using up to 64 threads
Optimize a model with 5124 rows, 2496 columns and 16032 nonzeros
Model fingerprint: 0xd9a1c733
Variable types: 0 continuous, 2496 integer (2496 binary)
Coefficient statistics:
  Matrix range     [1e+00, 1e+00]
  Objective range  [1e+00, 1e+00]
  Bounds range     [1e+00, 1e+00]
  RHS range        [4e+01, 2e+02]
Presolve removed 3637 rows and 1241 columns
Presolve time: 0.01s
Presolved: 1487 rows, 1255 columns, 5668 nonzeros
Variable types: 0 continuous, 1255 integer (1222 binary)
Root relaxation presolved: 1487 rows, 1255 columns, 5668 nonzeros


Root relaxation: objective 3.800000e+01, 1635 iterations, 0.07 seconds (0.06 work units)

    Nodes    |    Current Node    |     Objective Bounds      |     Work
 Expl Unexpl |  Obj  Depth IntInf | Incumbent    BestBd   Gap | It/Node Time

     0     0   38.00000    0   56          -   38.00000      -     -    0s
H    0     0                      38.0000000   38.00000  0.00%     -    0s

Cutting planes:
  Gomory: 7
  Cover: 1
  Zero half: 10

Explored 1 nodes (4612 simplex iterations) in 0.76 seconds (0.47 work units)
Thread count was 64 (of 64 available processors)

Solution count 1: 38 

Optimal solution found (tolerance 1.00e-04)
Best objective 3.800000000000e+01, best bound 3.800000000000e+01, gap 0.0000%
        2.58 - 	Solution num 1:
guessed:  x645 x647 x661 x681 x682 x684 x708 x723 x724 x775 x787 x790 x791 x792 x811 x816 x873 x874 x875 x876 x878 x889 x890 x914 x955 x995 x998 x1008 x1026 x1030 x1052 x1087 x1090 x1094 x1100 x1126 x1168 x1171 x1179 x1239 x1278 x1287 x1289 x1294 x1301 x1346 x1351 x1358 x1436 x1451 x1485 x1489 x1490 x1517 x1518 x1521 x1524 x1525 x1528 x1535 x1539 x1567 x1573 x1578 x1585 x1602 x1604 x1607 x1608 x1630 x1632 x1636 x1639 x1641 x1642 x1644 x1645 x1689 x1692 x1699 x1702 x1704 x1705 x1726 x1729 x1732 x1734 x1735 x1783 x1784 x1786 x1792 x1813 x1814 x1815 x1816 x1819 x1844 x1851 x1852 x1854 x1857 x1870 x1872 x1893 x1920 x1925 x1944 x1945 x1946 x1949 x1972 x1973 x1977 x1988 x1993 x2000 x2005 x2014 x2021 x2022 x2024 x2026 x2029 x2062 x2069 x2074 x2075 x2076 x2078 x2081 x2093 x2095 x2096 x2098 x2126 x2129 x2131 x2138 x2143 x2164 x2167 x2180 x2184 x2185 x2187 x2189 x2191 x2195 x2209 x2216 x2218 x2231 x2232 x2234 x2237[156]
linearized equations:  7 8 10 17 18 20 22 43 44 46 68 87 88 115 118 120 125 129 131 150 152 155 177 178 183 190 193 194 196 219 222 224 231 232 234 235 236 255
        2.58 - target guess 155
Set parameter Username
Academic license - for non-commercial use only - expires 2022-06-20
Set parameter Threads to value 64
Set parameter MIPFocus to value 3
        2.60 - there are 135 short nonlinear (11) polynomial
Set parameter TimeLimit to value 1800
Gurobi Optimizer version 9.5.0 build v9.5.0rc5 (linux64)
Thread count: 32 physical cores, 64 logical processors, using up to 64 threads
Optimize a model with 5124 rows, 2496 columns and 16032 nonzeros
Model fingerprint: 0xdc36882a
Variable types: 0 continuous, 2496 integer (2496 binary)
Coefficient statistics:
  Matrix range     [1e+00, 1e+00]
  Objective range  [1e+00, 1e+00]
  Bounds range     [1e+00, 1e+00]
  RHS range        [4e+01, 2e+02]
Presolve removed 3637 rows and 1241 columns
Presolve time: 0.01s
Presolved: 1487 rows, 1255 columns, 5668 nonzeros
Variable types: 0 continuous, 1255 integer (1222 binary)
Root relaxation presolved: 1487 rows, 1255 columns, 5668 nonzeros


Root relaxation: objective 3.900000e+01, 1677 iterations, 0.08 seconds (0.07 work units)

    Nodes    |    Current Node    |     Objective Bounds      |     Work
 Expl Unexpl |  Obj  Depth IntInf | Incumbent    BestBd   Gap | It/Node Time

     0     0   39.00000    0  432          -   39.00000      -     -    0s
     0     0   39.00000    0  269          -   39.00000      -     -    1s
     0     0   39.00000    0  339          -   39.00000      -     -    1s
     0     0   39.00000    0  339          -   39.00000      -     -    2s
     0     2   39.00000    0  339          -   39.00000      -     -    3s
    31    64   39.00000    5  243          -   39.00000      -   181    5s
*  261   387              11      39.0000000   39.00000  0.00%   164    7s

Cutting planes:
  Gomory: 2
  Flow cover: 7
  Zero half: 593
  RLT: 1

Explored 390 nodes (80062 simplex iterations) in 7.31 seconds (2.94 work units)
Thread count was 64 (of 64 available processors)

Solution count 1: 39 

Optimal solution found (tolerance 1.00e-04)
Best objective 3.900000000000e+01, best bound 3.900000000000e+01, gap 0.0000%
        9.97 - 	Solution num 1:
guessed:  x645 x665 x666 x681 x682 x684 x708 x724 x775 x791 x792 x812 x816 x853 x873 x875 x889 x890 x912 x914 x955 x995 x1026 x1029 x1068 x1087 x1089 x1099 x1106 x1108 x1123 x1131 x1168 x1222 x1239 x1294 x1298 x1301 x1302 x1326 x1334 x1355 x1358 x1359 x1378 x1455 x1472 x1485 x1486 x1490 x1491 x1498 x1504 x1505 x1507 x1522 x1524 x1525 x1530 x1531 x1532 x1582 x1585 x1586 x1587 x1601 x1602 x1603 x1604 x1607 x1613 x1623 x1629 x1639 x1641 x1643 x1645 x1664 x1667 x1699 x1703 x1705 x1726 x1727 x1729 x1735 x1783 x1792 x1793 x1796 x1813 x1816 x1819 x1851 x1855 x1870 x1872 x1893 x1917 x1918 x1926 x1927 x1946 x1949 x1974 x1990 x2005 x2006 x2007 x2011 x2021 x2025 x2026 x2027 x2029 x2048 x2053 x2057 x2059 x2069 x2074 x2075 x2076 x2078 x2081 x2093 x2094 x2098 x2126 x2128 x2138 x2143 x2145 x2164 x2167 x2180 x2183 x2184 x2185 x2186 x2188 x2191 x2193 x2194 x2195 x2205 x2206 x2209 x2210 x2211 x2216 x2218 x2232 x2234 x2236[155]
linearized equations:  7 17 21 22 23 26 43 44 46 49 65 68 69 70 87 88 93 115 125 129 131 132 133 150 151 152 155 177 192 193 194 196 219 221 231 235 236 238 255
       10.00 - target guess 154
Set parameter Username
Academic license - for non-commercial use only - expires 2022-06-20
Set parameter Threads to value 64
Set parameter MIPFocus to value 3
       10.05 - there are 135 short nonlinear (11) polynomial
Set parameter TimeLimit to value 1800
Gurobi Optimizer version 9.5.0 build v9.5.0rc5 (linux64)
Thread count: 32 physical cores, 64 logical processors, using up to 64 threads
Optimize a model with 5124 rows, 2496 columns and 16032 nonzeros
Model fingerprint: 0xa7554e98
Variable types: 0 continuous, 2496 integer (2496 binary)
Coefficient statistics:
  Matrix range     [1e+00, 1e+00]
  Objective range  [1e+00, 1e+00]
  Bounds range     [1e+00, 1e+00]
  RHS range        [4e+01, 2e+02]
Presolve removed 3637 rows and 1241 columns
Presolve time: 0.01s
Presolved: 1487 rows, 1255 columns, 5668 nonzeros
Variable types: 0 continuous, 1255 integer (1222 binary)
Root relaxation presolved: 1487 rows, 1255 columns, 5668 nonzeros


Root relaxation: objective 4.000000e+01, 1790 iterations, 0.09 seconds (0.09 work units)

    Nodes    |    Current Node    |     Objective Bounds      |     Work
 Expl Unexpl |  Obj  Depth IntInf | Incumbent    BestBd   Gap | It/Node Time

     0     0   40.00000    0  586          -   40.00000      -     -    0s
     0     0   40.00000    0  509          -   40.00000      -     -    1s
     0     0   40.00000    0  516          -   40.00000      -     -    1s
     0     0   40.00000    0  445          -   40.00000      -     -    2s
     0     0   40.00000    0  443          -   40.00000      -     -    2s
     0     0   40.00000    0  420          -   40.00000      -     -    2s
     0     0   40.00000    0  420          -   40.00000      -     -    2s
     0     2   40.00000    0  403          -   40.00000      -     -    4s
    15    32   40.00000    4  463          -   40.00000      -   277    5s
   191   248   40.00000    8  512          -   40.00000      -   411   10s
  2074   708 infeasible   17               -   40.00000      -   267   16s
  4263   668 infeasible   12               -   40.00000      -   244   21s
  6451   613   40.00000   14  488          -   40.00000      -   248   26s
  8652   501 infeasible   12               -   40.00000      -   254   31s
 10113   369 infeasible   19               -   40.00000      -   258   35s
 12627   210   40.00000   15  520          -   40.00000      -   262   41s
 14158    91   40.00000   19  325          -   40.00000      -   262   45s

Cutting planes:
  Gomory: 4
  Flow cover: 28
  Zero half: 615
  RLT: 5

Explored 14934 nodes (3944303 simplex iterations) in 47.75 seconds (28.21 work units)
Thread count was 64 (of 64 available processors)

Solution count 0
No other solutions better than -1e+100

Model is infeasible
Best objective -, best bound -, gap -
       57.86 - 	Solution num 0:
       57.89 - increase high_eq_constraint to 1

Set parameter Username
Academic license - for non-commercial use only - expires 2022-06-20
Set parameter Threads to value 64
Set parameter MIPFocus to value 3
       57.93 - there are 135 short nonlinear (11) polynomial
Set parameter TimeLimit to value 1800
Gurobi Optimizer version 9.5.0 build v9.5.0rc5 (linux64)
Thread count: 32 physical cores, 64 logical processors, using up to 64 threads
Optimize a model with 5124 rows, 2496 columns and 16032 nonzeros
Model fingerprint: 0x11bb2da4
Variable types: 0 continuous, 2496 integer (2496 binary)
Coefficient statistics:
  Matrix range     [1e+00, 1e+00]
  Objective range  [1e+00, 1e+00]
  Bounds range     [1e+00, 1e+00]
  RHS range        [1e+00, 2e+02]
Presolve removed 974 rows and 974 columns
Presolve time: 0.02s
Presolved: 4150 rows, 1522 columns, 13963 nonzeros
Variable types: 0 continuous, 1522 integer (1522 binary)
Root relaxation presolved: 4150 rows, 1522 columns, 13963 nonzeros


Root relaxation: objective 4.000000e+01, 2522 iterations, 0.26 seconds (0.31 work units)

    Nodes    |    Current Node    |     Objective Bounds      |     Work
 Expl Unexpl |  Obj  Depth IntInf | Incumbent    BestBd   Gap | It/Node Time

     0     0   40.00000    0  444          -   40.00000      -     -    1s
     0     0   40.00000    0  461          -   40.00000      -     -    2s
     0     0   40.00000    0  432          -   40.00000      -     -    2s
     0     0   40.00000    0  474          -   40.00000      -     -    4s
     0     0   40.00000    0  474          -   40.00000      -     -    5s
     0     2   40.00000    0  474          -   40.00000      -     -    7s
    16    32   40.00000    4  403          -   40.00000      -   498   10s
   127   192   40.00000    7  492          -   40.00000      -   358   15s
   878   783 infeasible   16               -   40.00000      -   256   22s
  1434   884   40.00000   15  262          -   40.00000      -   255   26s
  2257   971   40.00000   21  260          -   40.00000      -   255   30s
  3130  1098   40.00000   21  309          -   40.00000      -   257   35s
  4151  1170   40.00000   17  295          -   40.00000      -   258   41s
* 4595  1170              31      40.0000000   40.00000  0.00%   257   41s

Cutting planes:
  Gomory: 16
  Flow cover: 1
  Zero half: 1181
  RLT: 52

Explored 5343 nodes (1401025 simplex iterations) in 41.95 seconds (25.58 work units)
Thread count was 64 (of 64 available processors)

Solution count 1: 40 

Optimal solution found (tolerance 1.00e-04)
Best objective 4.000000000000e+01, best bound 4.000000000000e+01, gap 0.0000%
      100.17 - 	Solution num 1:
guessed:  x667 x678 x690 x692 x716 x755 x783 x797 x808 x820 x822 x823 x836 x854 x856 x878 x881 x896 x921 x946 x998 x1018 x1023 x1034 x1073 x1074 x1077 x1078 x1079 x1084 x1094 x1111 x1112 x1152 x1171 x1191 x1195 x1225 x1226 x1230 x1231 x1250 x1287 x1289 x1346 x1371 x1386 x1481 x1482 x1484 x1487 x1497 x1499 x1510 x1513 x1516 x1521 x1535 x1549 x1573 x1598 x1604 x1610 x1612 x1613 x1632 x1634 x1637 x1649 x1651 x1652 x1654 x1657 x1662 x1670 x1672 x1673 x1692 x1697 x1711 x1712 x1713 x1714 x1717 x1718 x1722 x1766 x1767 x1786 x1800 x1802 x1810 x1822 x1825 x1844 x1849 x1857 x1862 x1901 x1902 x1930 x1935 x1939 x1977 x1993 x1995 x2010 x2014 x2015 x2017 x2018 x2019 x2021 x2033 x2036 x2057 x2058 x2061 x2062 x2064 x2067 x2072 x2081 x2084 x2087 x2097 x2103 x2106 x2111 x2131 x2134 x2148 x2153 x2155 x2156 x2171 x2180 x2181 x2187 x2188 x2190 x2195 x2196 x2197 x2198 x2199 x2202 x2203 x2204 x2207 x2215 x2219 x2237 x2239[154]
linearized equations:  10 13 29 30 32 35 52 53 54 55 73 74 78 79 81 84 96 118 120 135 136 141 144 146 158 160 161 183 185 200 202 203 224 227 241 244 246 248 249 252
      100.26 - target guess 153
Set parameter Username
Academic license - for non-commercial use only - expires 2022-06-20
Set parameter Threads to value 64
Set parameter MIPFocus to value 3
      100.30 - there are 135 short nonlinear (11) polynomial
Set parameter TimeLimit to value 1800
Gurobi Optimizer version 9.5.0 build v9.5.0rc5 (linux64)
Thread count: 32 physical cores, 64 logical processors, using up to 64 threads
Optimize a model with 5124 rows, 2496 columns and 16032 nonzeros
Model fingerprint: 0x1acb19a3
Variable types: 0 continuous, 2496 integer (2496 binary)
Coefficient statistics:
  Matrix range     [1e+00, 1e+00]
  Objective range  [1e+00, 1e+00]
  Bounds range     [1e+00, 1e+00]
  RHS range        [4e+01, 2e+02]
Presolve removed 3637 rows and 1241 columns
Presolve time: 0.01s
Presolved: 1487 rows, 1255 columns, 5668 nonzeros
Variable types: 0 continuous, 1255 integer (1222 binary)
Root relaxation presolved: 1487 rows, 1255 columns, 5668 nonzeros


Root relaxation: objective 4.100000e+01, 1971 iterations, 0.11 seconds (0.11 work units)

    Nodes    |    Current Node    |     Objective Bounds      |     Work
 Expl Unexpl |  Obj  Depth IntInf | Incumbent    BestBd   Gap | It/Node Time

     0     0   41.00000    0  490          -   41.00000      -     -    0s
     0     0   41.00000    0  516          -   41.00000      -     -    1s
     0     0   41.00000    0  502          -   41.00000      -     -    2s
     0     0   41.00000    0  502          -   41.00000      -     -    3s
     0     2   41.00000    0  502          -   41.00000      -     -    4s
     7    16   41.00000    3  551          -   41.00000      -   361    5s
   354     5   41.00000   14  467          -   41.00000      -   534   10s

Cutting planes:
  Flow cover: 20
  Zero half: 539
  RLT: 2

Explored 365 nodes (207336 simplex iterations) in 10.34 seconds (6.84 work units)
Thread count was 64 (of 64 available processors)

Solution count 0
No other solutions better than -1e+100

Model is infeasible
Best objective -, best bound -, gap -
      110.80 - 	Solution num 0:
      110.83 - increase high_eq_constraint to 1

Set parameter Username
Academic license - for non-commercial use only - expires 2022-06-20
Set parameter Threads to value 64
Set parameter MIPFocus to value 3
      110.87 - there are 135 short nonlinear (11) polynomial
Set parameter TimeLimit to value 1800
Gurobi Optimizer version 9.5.0 build v9.5.0rc5 (linux64)
Thread count: 32 physical cores, 64 logical processors, using up to 64 threads
Optimize a model with 5124 rows, 2496 columns and 16032 nonzeros
Model fingerprint: 0xfa0d544d
Variable types: 0 continuous, 2496 integer (2496 binary)
Coefficient statistics:
  Matrix range     [1e+00, 1e+00]
  Objective range  [1e+00, 1e+00]
  Bounds range     [1e+00, 1e+00]
  RHS range        [1e+00, 2e+02]
Presolve removed 974 rows and 974 columns
Presolve time: 0.02s
Presolved: 4150 rows, 1522 columns, 13963 nonzeros
Variable types: 0 continuous, 1522 integer (1522 binary)
Root relaxation presolved: 4150 rows, 1522 columns, 13963 nonzeros


Root relaxation: objective 4.100000e+01, 2389 iterations, 0.25 seconds (0.26 work units)

    Nodes    |    Current Node    |     Objective Bounds      |     Work
 Expl Unexpl |  Obj  Depth IntInf | Incumbent    BestBd   Gap | It/Node Time

     0     0   41.00000    0  410          -   41.00000      -     -    1s
     0     0   41.00000    0  538          -   41.00000      -     -    3s
     0     0   41.00000    0  445          -   41.00000      -     -    4s
     0     0   41.00000    0  445          -   41.00000      -     -    5s
     0     2   41.00000    0  445          -   41.00000      -     -    7s
    31    56   41.00000    5  582          -   41.00000      -   608   10s
   247    90 infeasible    9               -   41.00000      -   618   15s
   787   444 infeasible   15               -   41.00000      -   585   22s
  1131   502 infeasible   18               -   41.00000      -   543   27s
  1537   612 infeasible   18               -   41.00000      -   524   32s
  2049   657 infeasible   27               -   41.00000      -   500   37s
  2688   630 infeasible   19               -   41.00000      -   489   41s
  4123   637 infeasible   19               -   41.00000      -   474   49s
  4828   661 infeasible   24               -   41.00000      -   469   55s
  5526   598   41.00000   14  526          -   41.00000      -   468   61s
  6341   566 infeasible   19               -   41.00000      -   466   67s
  7067   527 infeasible   27               -   41.00000      -   467   71s
  8509   334 infeasible   21               -   41.00000      -   467   75s
 10329    36 infeasible   15               -   41.00000      -   470   80s

Cutting planes:
  Flow cover: 4
  Zero half: 1190
  RLT: 43

Explored 10575 nodes (4995925 simplex iterations) in 82.17 seconds (85.06 work units)
Thread count was 64 (of 64 available processors)

Solution count 0
No other solutions better than -1e+100

Model is infeasible
Best objective -, best bound -, gap -
      193.05 - 	Solution num 0:
      193.07 - increase high_eq_constraint to 2

Set parameter Username
Academic license - for non-commercial use only - expires 2022-06-20
Set parameter Threads to value 64
Set parameter MIPFocus to value 3
      193.13 - there are 135 short nonlinear (11) polynomial
Set parameter TimeLimit to value 1800
Gurobi Optimizer version 9.5.0 build v9.5.0rc5 (linux64)
Thread count: 32 physical cores, 64 logical processors, using up to 64 threads
Optimize a model with 5124 rows, 2496 columns and 16032 nonzeros
Model fingerprint: 0xc9989a3a
Variable types: 0 continuous, 2496 integer (2496 binary)
Coefficient statistics:
  Matrix range     [1e+00, 1e+00]
  Objective range  [1e+00, 1e+00]
  Bounds range     [1e+00, 1e+00]
  RHS range        [2e+00, 2e+02]
Presolve removed 974 rows and 974 columns
Presolve time: 0.01s
Presolved: 4150 rows, 1522 columns, 13963 nonzeros
Variable types: 0 continuous, 1522 integer (1522 binary)
Root relaxation presolved: 4150 rows, 1522 columns, 13963 nonzeros


Root relaxation: objective 4.100000e+01, 2441 iterations, 0.18 seconds (0.34 work units)

    Nodes    |    Current Node    |     Objective Bounds      |     Work
 Expl Unexpl |  Obj  Depth IntInf | Incumbent    BestBd   Gap | It/Node Time

     0     0   41.00000    0  605          -   41.00000      -     -    1s
     0     0   41.00000    0  580          -   41.00000      -     -    1s
     0     0   41.00000    0  614          -   41.00000      -     -    2s
     0     0   41.00000    0  535          -   41.00000      -     -    3s
     0     0   41.00000    0  532          -   41.00000      -     -    3s
     0     0   41.00000    0  492          -   41.00000      -     -    4s
     0     0   41.00000    0  492          -   41.00000      -     -    5s
     0     2   41.00000    0  492          -   41.00000      -     -    7s
    63   128   41.00000    6  512          -   41.00000      -   535   10s
   191   254   41.00000    8  702          -   41.00000      -   768   18s
   398   531   41.00000   10  782          -   41.00000      -   683   22s
   702   661 infeasible   11               -   41.00000      -   643   25s
  1182   682   41.00000   18  384          -   41.00000      -   661   31s
  1869   741   41.00000   11  546          -   41.00000      -   628   37s
  2552   788 infeasible   14               -   41.00000      -   611   43s
  3345   828 infeasible   17               -   41.00000      -   598   51s
  4239   904   41.00000   11  577          -   41.00000      -   587   57s
  5145   930   41.00000   14  541          -   41.00000      -   580   66s
  6213   946 infeasible   20               -   41.00000      -   576   74s
  7295   989 infeasible   11               -   41.00000      -   574   83s
  8444  1033   41.00000    9  606          -   41.00000      -   571   93s
  9688   985   41.00000   11  575          -   41.00000      -   569  109s
 11070   876   41.00000   12  611          -   41.00000      -   566  120s
 12469   826   41.00000   13  596          -   41.00000      -   563  136s
 13769   772   41.00000   17  595          -   41.00000      -   561  147s
 15041   712 infeasible   16               -   41.00000      -   559  163s
 16333   686   41.00000   14  768          -   41.00000      -   558  177s
 17667   704 infeasible   10               -   41.00000      -   556  187s
 18951   662   41.00000   13  759          -   41.00000      -   554  195s
 20273   577   41.00000   20  626          -   41.00000      -   554  205s
 21694   451 infeasible   17               -   41.00000      -   552  212s
 23092   285 infeasible   15               -   41.00000      -   550  220s
 24332   116 infeasible   16               -   41.00000      -   549  227s
 25263    81 infeasible   16               -   41.00000      -   549  231s
 26121     9 infeasible   13               -   41.00000      -   550  235s

Cutting planes:
  Gomory: 8
  Flow cover: 14
  Zero half: 1368
  RLT: 108

Explored 26283 nodes (14465364 simplex iterations) in 237.00 seconds (220.33 work units)
Thread count was 64 (of 64 available processors)

Solution count 0
No other solutions better than -1e+100

Model is infeasible
Best objective -, best bound -, gap -
      430.14 - 	Solution num 0:
      430.17 - increase high_eq_constraint to 3

Set parameter Username
Academic license - for non-commercial use only - expires 2022-06-20
Set parameter Threads to value 64
Set parameter MIPFocus to value 3
      430.21 - there are 135 short nonlinear (11) polynomial
Set parameter TimeLimit to value 1800
Gurobi Optimizer version 9.5.0 build v9.5.0rc5 (linux64)
Thread count: 32 physical cores, 64 logical processors, using up to 64 threads
Optimize a model with 5124 rows, 2496 columns and 16032 nonzeros
Model fingerprint: 0xf120ab1c
Variable types: 0 continuous, 2496 integer (2496 binary)
Coefficient statistics:
  Matrix range     [1e+00, 1e+00]
  Objective range  [1e+00, 1e+00]
  Bounds range     [1e+00, 1e+00]
  RHS range        [3e+00, 2e+02]
Presolve removed 974 rows and 974 columns
Presolve time: 0.01s
Presolved: 4150 rows, 1522 columns, 13963 nonzeros
Variable types: 0 continuous, 1522 integer (1522 binary)
Root relaxation presolved: 4150 rows, 1522 columns, 13963 nonzeros


Root relaxation: objective 4.100000e+01, 2818 iterations, 0.26 seconds (0.41 work units)

    Nodes    |    Current Node    |     Objective Bounds      |     Work
 Expl Unexpl |  Obj  Depth IntInf | Incumbent    BestBd   Gap | It/Node Time

     0     0   41.00000    0  812          -   41.00000      -     -    1s
     0     0   41.00000    0  453          -   41.00000      -     -    2s
     0     0   41.00000    0  688          -   41.00000      -     -    4s
     0     0   41.00000    0  688          -   41.00000      -     -    5s
     0     2   41.00000    0  688          -   41.00000      -     -    6s
    63   128   41.00000    6  614          -   41.00000      -   425   10s
   418   739   41.00000   10  414          -   41.00000      -   459   15s
  1540  2211   41.00000   16  706          -   41.00000      -   391   25s
  2842  3125   41.00000   20  422          -   41.00000      -   424   34s
  4515  3126   41.00000   16  688          -   41.00000      -   550   36s
  4517  3127   41.00000   29  812          -   41.00000      -   550   40s
  4520  3129   41.00000   20  801          -   41.00000      -   550   45s
  4522  3131   41.00000   11  766          -   41.00000      -   549   52s
  4524  3132   41.00000   27  766          -   41.00000      -   549   56s
  4525  3136   41.00000   10  678          -   41.00000      -   6.9   69s
  4527  3139   41.00000   11  614          -   41.00000      -   7.0   80s
  4539  3159   41.00000   13  603          -   41.00000      -   7.7   89s
  4544  3157   41.00000   13  665          -   41.00000      -   8.2   90s
  4555  3186   41.00000   14  728          -   41.00000      -  10.0   98s
  4587  3239   41.00000   15  867          -   41.00000      -  15.7  106s
  4651  3278   41.00000   16  781          -   41.00000      -  27.8  112s
  4715  3302   41.00000   17  949          -   41.00000      -  51.4  119s
  4779  3505   41.00000   18  591          -   41.00000      -  60.4  139s
  5055  3831   41.00000   19  508          -   41.00000      -  92.8  160s
  5793  3970   41.00000   21  548          -   41.00000      -   179  184s
  6684  3943 infeasible   21               -   41.00000      -   302  229s
  7232  5106   41.00000   27  701          -   41.00000      -   333  306s
 10504  5064   41.00000   25  943          -   41.00000      -   399  406s
 13930  5077   41.00000   29  694          -   41.00000      -   433  526s
 18654  5964   41.00000   34  615          -   41.00000      -   462  573s
 22490  8960   41.00000   31  724          -   41.00000      -   472  622s
 29006  9143 infeasible   29               -   41.00000      -   452  665s
 29283  9551   41.00000   43  642          -   41.00000      -   452  746s
 33601 10051   41.00000   33  601          -   41.00000      -   465  850s
 38349 10146 infeasible   28               -   41.00000      -   471  931s
 39358 11486 infeasible   30               -   41.00000      -   473 1011s
 45128 13784 infeasible   23               -   41.00000      -   476 1164s
 51889 16390 infeasible   23               -   41.00000      -   476 1256s
 57239 19726 infeasible   28               -   41.00000      -   473 1363s
 62415 22694 infeasible   31               -   41.00000      -   472 1478s
 67914 25592 infeasible   41               -   41.00000      -   471 1578s
 73598 28089 infeasible   50               -   41.00000      -   471 1644s
 78548 31171   41.00000   58  840          -   41.00000      -   469 1725s
 85130 33870 infeasible   36               -   41.00000      -   469 1800s

Cutting planes:
  Gomory: 2
  Lift-and-project: 3
  Flow cover: 10
  Zero half: 1118
  RLT: 145

Explored 91783 nodes (45414870 simplex iterations) in 1800.14 seconds (990.96 work units)
Thread count was 64 (of 64 available processors)

Solution count 0

Time limit reached
Best objective -, best bound 4.100000000000e+01, gap -
     2230.48 - best linearization 40


